224619
224619
224619
224619
224619
222644
222644
222417
222417
222417
222417
220288
220288
220288
220288
220288
211703
211703
211703
211703
211703
211703
211703
211703
211703
211703
211703
211703
211703
211703
211703
210046
209197
206495
206495
206495
205092
200172
200172
200172
200172
200172
200172
200172
200172
200172
200172
200172
193005
193005
193005
193005
193005
193005
193005
193005
193005
191994
186833
186833
186833
186833
186833
186833
185595
185595
180816
180816
180816
180816
180816
180816
180816
180816
180816
180816
180816
180816
180816
180816
180816
180816
180816
174657
174657
174657
174657
174657
174657
174657
174657
174657
174657
171534
171534
170884
170884
170884
170884
170884
